1, 36, 32, 24, 23, 29, 28, 27, 21, 30, 22, 53, 52, 15, 14, 1
1, 20, 38, 41, 43, 50, 48, 49, 40, 11, 10, 19, 1
1, 16, 2, 3, 7, 4, 6, 5, 12, 9, 13, 8, 18, 1
1, 33, 34, 35, 39, 42, 51, 46, 45, 47, 37, 44, 25, 31, 26, 17, 1
